Problem-2/dairy.sol
# Objective value = 5.6002530894777279e+04
xcows_C1 6.0483870967741893e+01
xcows_C2 0
xcows_C3 5.1140072964670011e+01
xcows_C4 1.2829301075268802e+02
xcows_C5 3.2337269585253360e+01
xcows_C6 0
xcows_C7 1.0779569892473124e+02
xcows_C8 0
xcows_C9 6.1187115975422486e+01
xcows_C10 0
xcows_C11 5.1927323348694230e+01
xcows_C12 0
excess_C1 4.5197916666666688e+03
excess_C2 0
excess_C3 0
excess_C4 0
excess_C5 1.6750000000000016e+03
excess_C6 2.5028801843317433e+02
excess_C7 0
excess_C8 2.5580357142857497e+02
excess_C9 0
excess_C10 0
excess_C11 0
excess_C12 2.2529761904761745e+02
shortage_C1 0
shortage_C2 0
shortage_C3 0
shortage_C4 0
shortage_C5 0
shortage_C6 0
shortage_C7 0
shortage_C8 0
shortage_C9 0
shortage_C10 0
shortage_C11 0
shortage_C12 0
